(set-info :smt-lib-version 2.6)
(set-logic UFNIA)
(set-info :source |
Generated by: Geoff Sutcliffe
Generated on: 2026-03-11
Generator: TPTPWorld
Application: Benchmarking automated theorem provers
Time limit: 120.0

These benchmarks are translations from the TPTP Library (Thousands of
Problems for Theorem Provers), see http://www.cs.miami.edu/~tptp/

The TPTP is maintained by Geoff Sutcliffe, and he contributed this
selection of benchmarks to SMT-LIB.  They were exported from the
v9.2.1 realease of TPTP.
|)
(set-info :category "industrial")
(set-info :status "unknown")
; SZS status Success
(declare-sort $$unsorted 0)
(declare-fun tptp.v0 (Int) Int)
(declare-fun tptp.v3 (Int Int) Int)
(declare-fun tptp.u2 (Int Int) Int)
(declare-fun |tptp.'div:(Int*Int)>Int'| (Int Int) Int)
(declare-fun tptp.h2 () Int)
(declare-fun tptp.g2 (Int) Int)
(declare-fun tptp.v4 (Int Int Int) Int)
(declare-fun tptp.g5 (Int) Int)
(declare-fun tptp.u4 (Int Int Int) Int)
(declare-fun tptp.i4 () Int)
(declare-fun tptp.f5 (Int) Int)
(declare-fun tptp.u0 (Int Int) Int)
(declare-fun tptp.w4 (Int) Int)
(declare-fun tptp.g4 (Int Int) Int)
(declare-fun tptp.w1 (Int Int) Int)
(declare-fun tptp.i1 () Int)
(declare-fun tptp.v1 (Int Int Int) Int)
(declare-fun tptp.h5 () Int)
(declare-fun tptp.u3 (Int Int) Int)
(declare-fun tptp.h4 (Int) Int)
(declare-fun tptp.v2 (Int) Int)
(declare-fun tptp.g0 (Int) Int)
(declare-fun tptp.u1 (Int Int Int) Int)
(declare-fun tptp.g1 (Int Int) Int)
(declare-fun tptp.g3 () Int)
(declare-fun tptp.f0 (Int Int) Int)
(declare-fun tptp.f3 (Int) Int)
(declare-fun tptp.j4 () Int)
(declare-fun tptp.h0 () Int)
(declare-fun tptp.u5 (Int Int) Int)
(declare-fun tptp.h1 (Int Int) Int)
(declare-fun tptp.f2 (Int Int) Int)
(declare-fun tptp.j1 () Int)
(declare-fun tptp.fast (Int) Int)
(declare-fun tptp.f1 (Int Int) Int)
(declare-fun tptp.h3 (Int Int) Int)
(declare-fun tptp.small (Int) Int)
(declare-fun tptp.f4 (Int Int) Int)
(declare-fun tptp.v5 (Int) Int)
(assert (forall ((X Int) (Y Int)) (= (tptp.f1 X Y) (+ (- (* 2 (+ (* 2 (+ X X)) (* Y Y))) Y) X))))
(assert (forall ((X Int) (Y Int)) (= (tptp.g1 X Y) (+ Y Y))))
(assert (forall ((X Int) (Y Int)) (= (tptp.h1 X Y) Y)))
(assert (= tptp.i1 1))
(assert (= tptp.j1 2))
(assert (forall ((X Int) (Y Int) (Z Int)) (let ((_let_1 (- X 1))) (let ((_let_2 (tptp.u1 X Y Z))) (let ((_let_3 (<= X 0))) (and (=> _let_3 (= _let_2 Y)) (=> (not _let_3) (= _let_2 (tptp.f1 (tptp.u1 _let_1 Y Z) (tptp.v1 _let_1 Y Z))))))))))
(assert (forall ((X Int) (Y Int) (Z Int)) (let ((_let_1 (- X 1))) (let ((_let_2 (tptp.v1 X Y Z))) (let ((_let_3 (<= X 0))) (and (=> _let_3 (= _let_2 Z)) (=> (not _let_3) (= _let_2 (tptp.g1 (tptp.u1 _let_1 Y Z) (tptp.v1 _let_1 Y Z))))))))))
(assert (forall ((X Int) (Y Int)) (= (tptp.w1 X Y) (tptp.u1 (tptp.h1 X Y) tptp.i1 tptp.j1))))
(assert (forall ((X Int) (Y Int)) (= (tptp.f0 X Y) (+ (tptp.w1 X Y) (* 2 (+ (+ X X) X))))))
(assert (forall ((X Int)) (= (tptp.g0 X) X)))
(assert (= tptp.h0 1))
(assert (forall ((X Int) (Y Int)) (let ((_let_1 (tptp.u0 X Y))) (let ((_let_2 (<= X 0))) (and (=> _let_2 (= _let_1 Y)) (=> (not _let_2) (= _let_1 (tptp.f0 (tptp.u0 (- X 1) Y) X))))))))
(assert (forall ((X Int)) (= (tptp.v0 X) (tptp.u0 (tptp.g0 X) tptp.h0))))
(assert (forall ((X Int)) (= (tptp.small X) (tptp.v0 X))))
(assert (forall ((X Int) (Y Int)) (= (tptp.f4 X Y) (+ (* 2 (+ X Y)) X))))
(assert (forall ((X Int) (Y Int)) (= (tptp.g4 X Y) (+ Y Y))))
(assert (forall ((X Int)) (= (tptp.h4 X) X)))
(assert (= tptp.i4 1))
(assert (= tptp.j4 (+ 2 2)))
(assert (forall ((X Int) (Y Int) (Z Int)) (let ((_let_1 (- X 1))) (let ((_let_2 (tptp.u4 X Y Z))) (let ((_let_3 (<= X 0))) (and (=> _let_3 (= _let_2 Y)) (=> (not _let_3) (= _let_2 (tptp.f4 (tptp.u4 _let_1 Y Z) (tptp.v4 _let_1 Y Z))))))))))
(assert (forall ((X Int) (Y Int) (Z Int)) (let ((_let_1 (- X 1))) (let ((_let_2 (tptp.v4 X Y Z))) (let ((_let_3 (<= X 0))) (and (=> _let_3 (= _let_2 Z)) (=> (not _let_3) (= _let_2 (tptp.g4 (tptp.u4 _let_1 Y Z) (tptp.v4 _let_1 Y Z))))))))))
(assert (forall ((X Int)) (= (tptp.w4 X) (tptp.u4 (tptp.h4 X) tptp.i4 tptp.j4))))
(assert (forall ((X Int)) (= (tptp.f5 X) (+ X X))))
(assert (forall ((X Int)) (= (tptp.g5 X) X)))
(assert (= tptp.h5 1))
(assert (forall ((X Int) (Y Int)) (let ((_let_1 (tptp.u5 X Y))) (let ((_let_2 (<= X 0))) (and (=> _let_2 (= _let_1 Y)) (=> (not _let_2) (= _let_1 (tptp.f5 (tptp.u5 (- X 1) Y)))))))))
(assert (forall ((X Int)) (= (tptp.v5 X) (tptp.u5 (tptp.g5 X) tptp.h5))))
(assert (forall ((X Int)) (= (tptp.f3 X) (* (+ (|tptp.'div:(Int*Int)>Int'| (tptp.w4 X) 2) 1) (tptp.v5 X)))))
(assert (= tptp.g3 1))
(assert (forall ((X Int) (Y Int)) (= (tptp.h3 X Y) Y)))
(assert (forall ((X Int) (Y Int)) (let ((_let_1 (tptp.u3 X Y))) (let ((_let_2 (<= X 0))) (and (=> _let_2 (= _let_1 Y)) (=> (not _let_2) (= _let_1 (tptp.f3 (tptp.u3 (- X 1) Y)))))))))
(assert (forall ((X Int) (Y Int)) (= (tptp.v3 X Y) (tptp.u3 tptp.g3 (tptp.h3 X Y)))))
(assert (forall ((X Int) (Y Int)) (= (tptp.f2 X Y) (+ (+ (tptp.v3 X Y) (* 2 (* 2 (+ X X)))) X))))
(assert (forall ((X Int)) (= (tptp.g2 X) X)))
(assert (= tptp.h2 1))
(assert (forall ((X Int) (Y Int)) (let ((_let_1 (tptp.u2 X Y))) (let ((_let_2 (<= X 0))) (and (=> _let_2 (= _let_1 Y)) (=> (not _let_2) (= _let_1 (tptp.f2 (tptp.u2 (- X 1) Y) X))))))))
(assert (forall ((X Int)) (= (tptp.v2 X) (tptp.u2 (tptp.g2 X) tptp.h2))))
(assert (forall ((X Int)) (= (tptp.fast X) (tptp.v2 X))))
(assert (not (not (exists ((C Int)) (and (>= C 0) (not (= (tptp.small C) (tptp.fast C))))))))
(check-sat)
